100
11 4
27 0
6 0
26 3
35 1
14 4
31 3
41 4
28 0
23 1
20 3
27 3
25 2
0 3
2 4
33 0
8 4
36 4
12 4
23 3
37 0
19 0
1 3
38 4
20 0
33 3
39 2
4 3
12 0
5 0
18 0
9 0
31 4
44 2
35 0
17 4
10 4
38 3
44 1
35 4
29 2
24 1
29 0
20 4
32 0
2 0
5 4
18 4
19 4
21 0
18 1
4 0
25 4
7 4
39 4
40 3
22 3
36 0
28 2
44 0
14 3
37 4
3 4
13 4
5 1
10 0
6 4
13 3
3 3
3 0
15 4
16 4
34 0
24 3
22 0
30 0
27 4
31 0
31 1
0 4
0 0
20 1
7 0
25 0
11 2
7 1
23 0
22 4
16 2
29 3
42 4
15 0
28 4
38 0
6 3
41 3
11 1
41 0
32 4
2 1

